experiment/data/lkh-res/Vrp-Set-Li-n1201/Vrp-Set-Li-n1201-lkh/0.lkh1.log
PARAMETER_FILE = baseline_results/cvrp_lkh/Vrp-Set-Li-n1201/Vrp-Set-Li-n1201-lkh/0.lkh1.par
Reading PROBLEM_FILE: "baseline_results/cvrp_lkh/Vrp-Set-Li-n1201/Vrp-Set-Li-n1201-lkh/0.lkh1.vrp" ... done
ASCENT_CANDIDATES = 50
BACKBONE_TRIALS = 0
BACKTRACKING = NO
# BWTSP =
# CANDIDATE_FILE =
CANDIDATE_SET_TYPE = ALPHA
# DISTANCE =
DEPOT = 1
# EDGE_FILE =
EXCESS = 0.000832639
EXTERNAL_SALESMEN = 0
EXTRA_CANDIDATES = 0 
EXTRA_CANDIDATE_SET_TYPE = QUADRANT
GAIN23 = NO
GAIN_CRITERION = YES
INITIAL_PERIOD = 600
INITIAL_STEP_SIZE = 1
INITIAL_TOUR_ALGORITHM = WALK
# INITIAL_TOUR_FILE = 
INITIAL_TOUR_FRACTION = 1.000
# INPUT_TOUR_FILE = 
KICK_TYPE = 4
KICKS = 1
# MAX_BREADTH =
MAKESPAN = NO
MAX_CANDIDATES = 5 
MAX_SWAPS = 0
MAX_TRIALS = 10000
# MERGE_TOUR_FILE =
MOVE_TYPE = 5 SPECIAL
MTSP_MIN_SIZE = 1
MTSP_MAX_SIZE = 1200
# MTSP_SOLUTION_FILE = 
# NONSEQUENTIAL_MOVE_TYPE = 5
# OPTIMUM =
OUTPUT_TOUR_FILE = baseline_results/cvrp_lkh/Vrp-Set-Li-n1201/Vrp-Set-Li-n1201-lkh/0.lkh1.tour
PATCHING_A = 1 
PATCHING_C = 0 
# PI_FILE = 
POPMUSIC_INITIAL_TOUR = NO
POPMUSIC_MAX_NEIGHBORS = 5
POPMUSIC_SAMPLE_SIZE = 10
POPMUSIC_SOLUTIONS = 50
POPMUSIC_TRIALS = 1
POPULATION_SIZE = 10
PRECISION = 100
PROBLEM_FILE = baseline_results/cvrp_lkh/Vrp-Set-Li-n1201/Vrp-Set-Li-n1201-lkh/0.lkh1.vrp
RECOMBINATION = IPT
RESTRICTED_SEARCH = YES
RUNS = 1
SALESMEN = 10
SCALE = 1
SEED = 1234
# SINTEF_SOLUTION_FILE = 
STOP_AT_OPTIMUM = YES
SUBGRADIENT = YES
# SUBPROBLEM_SIZE =
# SUBPROBLEM_TOUR_FILE = 
SUBSEQUENT_MOVE_TYPE = 5 SPECIAL
SUBSEQUENT_PATCHING = YES
# TIME_LIMIT =
# TOTAL_TIME_LIMIT =
# TOUR_FILE = 
TRACE_LEVEL = 1
VEHICLES = 10

Lower bound = 3568682.0, Ascent time = 1.29 sec.
Cand.min = 2, Cand.avg = 5.0, Cand.max = 5
Preprocessing time = 1.32 sec.
* 1: Cost = 0_4263847, Time = 0.27 sec. 
Writing OUTPUT_TOUR_FILE: "baseline_results/cvrp_lkh/Vrp-Set-Li-n1201/Vrp-Set-Li-n1201-lkh/0.lkh1.tour" ... done
* 3: Cost = 0_4262806, Time = 0.28 sec. 
Writing OUTPUT_TOUR_FILE: "baseline_results/cvrp_lkh/Vrp-Set-Li-n1201/Vrp-Set-Li-n1201-lkh/0.lkh1.tour" ... done
* 4: Cost = 0_4257056, Time = 0.28 sec. 
Writing OUTPUT_TOUR_FILE: "baseline_results/cvrp_lkh/Vrp-Set-Li-n1201/Vrp-Set-Li-n1201-lkh/0.lkh1.tour" ... done
* 9: Cost = 0_4192844, Time = 0.29 sec. 
Writing OUTPUT_TOUR_FILE: "baseline_results/cvrp_lkh/Vrp-Set-Li-n1201/Vrp-Set-Li-n1201-lkh/0.lkh1.tour" ... done
* 10: Cost = 0_4192631, Time = 0.29 sec. 
Writing OUTPUT_TOUR_FILE: "baseline_results/cvrp_lkh/Vrp-Set-Li-n1201/Vrp-Set-Li-n1201-lkh/0.lkh1.tour" ... done
* 11: Cost = 0_4180831, Time = 0.30 sec. 
Writing OUTPUT_TOUR_FILE: "baseline_results/cvrp_lkh/Vrp-Set-Li-n1201/Vrp-Set-Li-n1201-lkh/0.lkh1.tour" ... done
* 19: Cost = 0_4151148, Time = 0.33 sec. 
Writing OUTPUT_TOUR_FILE: "baseline_results/cvrp_lkh/Vrp-Set-Li-n1201/Vrp-Set-Li-n1201-lkh/0.lkh1.tour" ... done
* 20: Cost = 0_4149968, Time = 0.33 sec. 
Writing OUTPUT_TOUR_FILE: "baseline_results/cvrp_lkh/Vrp-Set-Li-n1201/Vrp-Set-Li-n1201-lkh/0.lkh1.tour" ... done
* 23: Cost = 0_4148135, Time = 0.33 sec. 
Writing OUTPUT_TOUR_FILE: "baseline_results/cvrp_lkh/Vrp-Set-Li-n1201/Vrp-Set-Li-n1201-lkh/0.lkh1.tour" ... done
* 25: Cost = 0_4104638, Time = 0.34 sec. 
Writing OUTPUT_TOUR_FILE: "baseline_results/cvrp_lkh/Vrp-Set-Li-n1201/Vrp-Set-Li-n1201-lkh/0.lkh1.tour" ... done
* 26: Cost = 0_4027367, Time = 0.37 sec. 
Writing OUTPUT_TOUR_FILE: "baseline_results/cvrp_lkh/Vrp-Set-Li-n1201/Vrp-Set-Li-n1201-lkh/0.lkh1.tour" ... done
* 28: Cost = 0_4025008, Time = 0.38 sec. 
Writing OUTPUT_TOUR_FILE: "baseline_results/cvrp_lkh/Vrp-Set-Li-n1201/Vrp-Set-Li-n1201-lkh/0.lkh1.tour" ... done
* 31: Cost = 0_4025006, Time = 0.40 sec. 
Writing OUTPUT_TOUR_FILE: "baseline_results/cvrp_lkh/Vrp-Set-Li-n1201/Vrp-Set-Li-n1201-lkh/0.lkh1.tour" ... done
* 32: Cost = 0_4009220, Time = 0.41 sec. 
Writing OUTPUT_TOUR_FILE: "baseline_results/cvrp_lkh/Vrp-Set-Li-n1201/Vrp-Set-Li-n1201-lkh/0.lkh1.tour" ... done
* 39: Cost = 0_3993561, Time = 0.42 sec. 
Writing OUTPUT_TOUR_FILE: "baseline_results/cvrp_lkh/Vrp-Set-Li-n1201/Vrp-Set-Li-n1201-lkh/0.lkh1.tour" ... done
* 40: Cost = 0_3992766, Time = 0.42 sec. 
Writing OUTPUT_TOUR_FILE: "baseline_results/cvrp_lkh/Vrp-Set-Li-n1201/Vrp-Set-Li-n1201-lkh/0.lkh1.tour" ... done
* 43: Cost = 0_3988461, Time = 0.43 sec. 
Writing OUTPUT_TOUR_FILE: "baseline_results/cvrp_lkh/Vrp-Set-Li-n1201/Vrp-Set-Li-n1201-lkh/0.lkh1.tour" ... done
* 46: Cost = 0_3927872, Time = 0.43 sec. 
Writing OUTPUT_TOUR_FILE: "baseline_results/cvrp_lkh/Vrp-Set-Li-n1201/Vrp-Set-Li-n1201-lkh/0.lkh1.tour" ... done
* 49: Cost = 0_3920295, Time = 0.44 sec. 
Writing OUTPUT_TOUR_FILE: "baseline_results/cvrp_lkh/Vrp-Set-Li-n1201/Vrp-Set-Li-n1201-lkh/0.lkh1.tour" ... done
* 51: Cost = 0_3918690, Time = 0.44 sec. 
Writing OUTPUT_TOUR_FILE: "baseline_results/cvrp_lkh/Vrp-Set-Li-n1201/Vrp-Set-Li-n1201-lkh/0.lkh1.tour" ... done
* 52: Cost = 0_3898419, Time = 0.46 sec. 
Writing OUTPUT_TOUR_FILE: "baseline_results/cvrp_lkh/Vrp-Set-Li-n1201/Vrp-Set-Li-n1201-lkh/0.lkh1.tour" ... done
* 54: Cost = 0_3872828, Time = 0.47 sec. 
Writing OUTPUT_TOUR_FILE: "baseline_results/cvrp_lkh/Vrp-Set-Li-n1201/Vrp-Set-Li-n1201-lkh/0.lkh1.tour" ... done
* 58: Cost = 0_3872361, Time = 0.48 sec. 
Writing OUTPUT_TOUR_FILE: "baseline_results/cvrp_lkh/Vrp-Set-Li-n1201/Vrp-Set-Li-n1201-lkh/0.lkh1.tour" ... done
* 61: Cost = 0_3872151, Time = 0.48 sec. 
Writing OUTPUT_TOUR_FILE: "baseline_results/cvrp_lkh/Vrp-Set-Li-n1201/Vrp-Set-Li-n1201-lkh/0.lkh1.tour" ... done
* 62: Cost = 0_3872078, Time = 0.49 sec. 
Writing OUTPUT_TOUR_FILE: "baseline_results/cvrp_lkh/Vrp-Set-Li-n1201/Vrp-Set-Li-n1201-lkh/0.lkh1.tour" ... done
* 64: Cost = 0_3872077, Time = 0.49 sec. 
Writing OUTPUT_TOUR_FILE: "baseline_results/cvrp_lkh/Vrp-Set-Li-n1201/Vrp-Set-Li-n1201-lkh/0.lkh1.tour" ... done
* 65: Cost = 0_3870099, Time = 0.59 sec. 
Writing OUTPUT_TOUR_FILE: "baseline_results/cvrp_lkh/Vrp-Set-Li-n1201/Vrp-Set-Li-n1201-lkh/0.lkh1.tour" ... done
* 67: Cost = 0_3870097, Time = 0.59 sec. 
Writing OUTPUT_TOUR_FILE: "baseline_results/cvrp_lkh/Vrp-Set-Li-n1201/Vrp-Set-Li-n1201-lkh/0.lkh1.tour" ... done
* 78: Cost = 0_3867190, Time = 0.61 sec. 
Writing OUTPUT_TOUR_FILE: "baseline_results/cvrp_lkh/Vrp-Set-Li-n1201/Vrp-Set-Li-n1201-lkh/0.lkh1.tour" ... done
* 85: Cost = 0_3846178, Time = 0.62 sec. 
Writing OUTPUT_TOUR_FILE: "baseline_results/cvrp_lkh/Vrp-Set-Li-n1201/Vrp-Set-Li-n1201-lkh/0.lkh1.tour" ... done
* 87: Cost = 0_3846106, Time = 0.63 sec. 
Writing OUTPUT_TOUR_FILE: "baseline_results/cvrp_lkh/Vrp-Set-Li-n1201/Vrp-Set-Li-n1201-lkh/0.lkh1.tour" ... done
* 90: Cost = 0_3830205, Time = 0.63 sec. 
Writing OUTPUT_TOUR_FILE: "baseline_results/cvrp_lkh/Vrp-Set-Li-n1201/Vrp-Set-Li-n1201-lkh/0.lkh1.tour" ... done
* 94: Cost = 0_3823119, Time = 0.64 sec. 
Writing OUTPUT_TOUR_FILE: "baseline_results/cvrp_lkh/Vrp-Set-Li-n1201/Vrp-Set-Li-n1201-lkh/0.lkh1.tour" ... done
* 95: Cost = 0_3822733, Time = 0.65 sec. 
Writing OUTPUT_TOUR_FILE: "baseline_results/cvrp_lkh/Vrp-Set-Li-n1201/Vrp-Set-Li-n1201-lkh/0.lkh1.tour" ... done
* 98: Cost = 0_3819415, Time = 0.66 sec. 
Writing OUTPUT_TOUR_FILE: "baseline_results/cvrp_lkh/Vrp-Set-Li-n1201/Vrp-Set-Li-n1201-lkh/0.lkh1.tour" ... done
* 103: Cost = 0_3818748, Time = 0.66 sec. 
Writing OUTPUT_TOUR_FILE: "baseline_results/cvrp_lkh/Vrp-Set-Li-n1201/Vrp-Set-Li-n1201-lkh/0.lkh1.tour" ... done
* 106: Cost = 0_3817242, Time = 0.67 sec. 
Writing OUTPUT_TOUR_FILE: "baseline_results/cvrp_lkh/Vrp-Set-Li-n1201/Vrp-Set-Li-n1201-lkh/0.lkh1.tour" ... done
* 107: Cost = 0_3815329, Time = 0.67 sec. 
Writing OUTPUT_TOUR_FILE: "baseline_results/cvrp_lkh/Vrp-Set-Li-n1201/Vrp-Set-Li-n1201-lkh/0.lkh1.tour" ... done
* 111: Cost = 0_3814503, Time = 0.67 sec. 
Writing OUTPUT_TOUR_FILE: "baseline_results/cvrp_lkh/Vrp-Set-Li-n1201/Vrp-Set-Li-n1201-lkh/0.lkh1.tour" ... done
* 118: Cost = 0_3814500, Time = 0.68 sec. 
Writing OUTPUT_TOUR_FILE: "baseline_results/cvrp_lkh/Vrp-Set-Li-n1201/Vrp-Set-Li-n1201-lkh/0.lkh1.tour" ... done
* 120: Cost = 0_3804883, Time = 0.68 sec. 
Writing OUTPUT_TOUR_FILE: "baseline_results/cvrp_lkh/Vrp-Set-Li-n1201/Vrp-Set-Li-n1201-lkh/0.lkh1.tour" ... done
* 130: Cost = 0_3803032, Time = 0.69 sec. 
Writing OUTPUT_TOUR_FILE: "baseline_results/cvrp_lkh/Vrp-Set-Li-n1201/Vrp-Set-Li-n1201-lkh/0.lkh1.tour" ... done
* 159: Cost = 0_3803024, Time = 0.73 sec. 
Writing OUTPUT_TOUR_FILE: "baseline_results/cvrp_lkh/Vrp-Set-Li-n1201/Vrp-Set-Li-n1201-lkh/0.lkh1.tour" ... done
* 170: Cost = 0_3800581, Time = 0.74 sec. 
Writing OUTPUT_TOUR_FILE: "baseline_results/cvrp_lkh/Vrp-Set-Li-n1201/Vrp-Set-Li-n1201-lkh/0.lkh1.tour" ... done
* 175: Cost = 0_3800113, Time = 0.74 sec. 
Writing OUTPUT_TOUR_FILE: "baseline_results/cvrp_lkh/Vrp-Set-Li-n1201/Vrp-Set-Li-n1201-lkh/0.lkh1.tour" ... done
* 178: Cost = 0_3795073, Time = 0.74 sec. 
Writing OUTPUT_TOUR_FILE: "baseline_results/cvrp_lkh/Vrp-Set-Li-n1201/Vrp-Set-Li-n1201-lkh/0.lkh1.tour" ... done
* 187: Cost = 0_3795072, Time = 0.75 sec. 
Writing OUTPUT_TOUR_FILE: "baseline_results/cvrp_lkh/Vrp-Set-Li-n1201/Vrp-Set-Li-n1201-lkh/0.lkh1.tour" ... done
* 210: Cost = 0_3795070, Time = 0.77 sec. 
Writing OUTPUT_TOUR_FILE: "baseline_results/cvrp_lkh/Vrp-Set-Li-n1201/Vrp-Set-Li-n1201-lkh/0.lkh1.tour" ... done
* 327: Cost = 0_3794569, Time = 0.96 sec. 
Writing OUTPUT_TOUR_FILE: "baseline_results/cvrp_lkh/Vrp-Set-Li-n1201/Vrp-Set-Li-n1201-lkh/0.lkh1.tour" ... done
* 363: Cost = 0_3794079, Time = 1.02 sec. 
Writing OUTPUT_TOUR_FILE: "baseline_results/cvrp_lkh/Vrp-Set-Li-n1201/Vrp-Set-Li-n1201-lkh/0.lkh1.tour" ... done
* 367: Cost = 0_3793236, Time = 1.03 sec. 
Writing OUTPUT_TOUR_FILE: "baseline_results/cvrp_lkh/Vrp-Set-Li-n1201/Vrp-Set-Li-n1201-lkh/0.lkh1.tour" ... done
* 375: Cost = 0_3791907, Time = 1.04 sec. 
Writing OUTPUT_TOUR_FILE: "baseline_results/cvrp_lkh/Vrp-Set-Li-n1201/Vrp-Set-Li-n1201-lkh/0.lkh1.tour" ... done
* 422: Cost = 0_3791786, Time = 1.09 sec. 
Writing OUTPUT_TOUR_FILE: "baseline_results/cvrp_lkh/Vrp-Set-Li-n1201/Vrp-Set-Li-n1201-lkh/0.lkh1.tour" ... done
* 571: Cost = 0_3791743, Time = 1.43 sec. 
Writing OUTPUT_TOUR_FILE: "baseline_results/cvrp_lkh/Vrp-Set-Li-n1201/Vrp-Set-Li-n1201-lkh/0.lkh1.tour" ... done
* 583: Cost = 0_3788565, Time = 1.46 sec. 
Writing OUTPUT_TOUR_FILE: "baseline_results/cvrp_lkh/Vrp-Set-Li-n1201/Vrp-Set-Li-n1201-lkh/0.lkh1.tour" ... done
* 642: Cost = 0_3787975, Time = 1.56 sec. 
Writing OUTPUT_TOUR_FILE: "baseline_results/cvrp_lkh/Vrp-Set-Li-n1201/Vrp-Set-Li-n1201-lkh/0.lkh1.tour" ... done
* 670: Cost = 0_3787974, Time = 1.62 sec. 
Writing OUTPUT_TOUR_FILE: "baseline_results/cvrp_lkh/Vrp-Set-Li-n1201/Vrp-Set-Li-n1201-lkh/0.lkh1.tour" ... done
* 681: Cost = 0_3784851, Time = 1.63 sec. 
Writing OUTPUT_TOUR_FILE: "baseline_results/cvrp_lkh/Vrp-Set-Li-n1201/Vrp-Set-Li-n1201-lkh/0.lkh1.tour" ... done
* 704: Cost = 0_3784850, Time = 1.66 sec. 
Writing OUTPUT_TOUR_FILE: "baseline_results/cvrp_lkh/Vrp-Set-Li-n1201/Vrp-Set-Li-n1201-lkh/0.lkh1.tour" ... done
* 727: Cost = 0_3783862, Time = 1.69 sec. 
Writing OUTPUT_TOUR_FILE: "baseline_results/cvrp_lkh/Vrp-Set-Li-n1201/Vrp-Set-Li-n1201-lkh/0.lkh1.tour" ... done
* 743: Cost = 0_3783791, Time = 1.72 sec. 
Writing OUTPUT_TOUR_FILE: "baseline_results/cvrp_lkh/Vrp-Set-Li-n1201/Vrp-Set-Li-n1201-lkh/0.lkh1.tour" ... done
* 774: Cost = 0_3783734, Time = 1.77 sec. 
Writing OUTPUT_TOUR_FILE: "baseline_results/cvrp_lkh/Vrp-Set-Li-n1201/Vrp-Set-Li-n1201-lkh/0.lkh1.tour" ... done
* 775: Cost = 0_3783545, Time = 1.81 sec. 
Writing OUTPUT_TOUR_FILE: "baseline_results/cvrp_lkh/Vrp-Set-Li-n1201/Vrp-Set-Li-n1201-lkh/0.lkh1.tour" ... done
* 939: Cost = 0_3783543, Time = 1.98 sec. 
Writing OUTPUT_TOUR_FILE: "baseline_results/cvrp_lkh/Vrp-Set-Li-n1201/Vrp-Set-Li-n1201-lkh/0.lkh1.tour" ... done
* 1050: Cost = 0_3783391, Time = 2.14 sec. 
Writing OUTPUT_TOUR_FILE: "baseline_results/cvrp_lkh/Vrp-Set-Li-n1201/Vrp-Set-Li-n1201-lkh/0.lkh1.tour" ... done
* 1090: Cost = 0_3783271, Time = 2.17 sec. 
Writing OUTPUT_TOUR_FILE: "baseline_results/cvrp_lkh/Vrp-Set-Li-n1201/Vrp-Set-Li-n1201-lkh/0.lkh1.tour" ... done
* 1283: Cost = 0_3783072, Time = 2.44 sec. 
Writing OUTPUT_TOUR_FILE: "baseline_results/cvrp_lkh/Vrp-Set-Li-n1201/Vrp-Set-Li-n1201-lkh/0.lkh1.tour" ... done
* 1404: Cost = 0_3782860, Time = 2.63 sec. 
Writing OUTPUT_TOUR_FILE: "baseline_results/cvrp_lkh/Vrp-Set-Li-n1201/Vrp-Set-Li-n1201-lkh/0.lkh1.tour" ... done
* 1712: Cost = 0_3782744, Time = 3.13 sec. 
Writing OUTPUT_TOUR_FILE: "baseline_results/cvrp_lkh/Vrp-Set-Li-n1201/Vrp-Set-Li-n1201-lkh/0.lkh1.tour" ... done
* 1733: Cost = 0_3782743, Time = 3.15 sec. 
Writing OUTPUT_TOUR_FILE: "baseline_results/cvrp_lkh/Vrp-Set-Li-n1201/Vrp-Set-Li-n1201-lkh/0.lkh1.tour" ... done
* 1804: Cost = 0_3782692, Time = 3.25 sec. 
Writing OUTPUT_TOUR_FILE: "baseline_results/cvrp_lkh/Vrp-Set-Li-n1201/Vrp-Set-Li-n1201-lkh/0.lkh1.tour" ... done
* 1959: Cost = 0_3782620, Time = 3.50 sec. 
Writing OUTPUT_TOUR_FILE: "baseline_results/cvrp_lkh/Vrp-Set-Li-n1201/Vrp-Set-Li-n1201-lkh/0.lkh1.tour" ... done
* 2038: Cost = 0_3782619, Time = 3.64 sec. 
Writing OUTPUT_TOUR_FILE: "baseline_results/cvrp_lkh/Vrp-Set-Li-n1201/Vrp-Set-Li-n1201-lkh/0.lkh1.tour" ... done
* 2121: Cost = 0_3782576, Time = 3.75 sec. 
Writing OUTPUT_TOUR_FILE: "baseline_results/cvrp_lkh/Vrp-Set-Li-n1201/Vrp-Set-Li-n1201-lkh/0.lkh1.tour" ... done
* 2162: Cost = 0_3782574, Time = 3.81 sec. 
Writing OUTPUT_TOUR_FILE: "baseline_results/cvrp_lkh/Vrp-Set-Li-n1201/Vrp-Set-Li-n1201-lkh/0.lkh1.tour" ... done
* 2321: Cost = 0_3782500, Time = 4.01 sec. 
Writing OUTPUT_TOUR_FILE: "baseline_results/cvrp_lkh/Vrp-Set-Li-n1201/Vrp-Set-Li-n1201-lkh/0.lkh1.tour" ... done
* 2677: Cost = 0_3782499, Time = 4.65 sec. 
Writing OUTPUT_TOUR_FILE: "baseline_results/cvrp_lkh/Vrp-Set-Li-n1201/Vrp-Set-Li-n1201-lkh/0.lkh1.tour" ... done
* 3315: Cost = 0_3782498, Time = 5.66 sec. 
Writing OUTPUT_TOUR_FILE: "baseline_results/cvrp_lkh/Vrp-Set-Li-n1201/Vrp-Set-Li-n1201-lkh/0.lkh1.tour" ... done
* 3689: Cost = 0_3782081, Time = 6.29 sec. 
Writing OUTPUT_TOUR_FILE: "baseline_results/cvrp_lkh/Vrp-Set-Li-n1201/Vrp-Set-Li-n1201-lkh/0.lkh1.tour" ... done
* 3903: Cost = 0_3782076, Time = 6.61 sec. 
Writing OUTPUT_TOUR_FILE: "baseline_results/cvrp_lkh/Vrp-Set-Li-n1201/Vrp-Set-Li-n1201-lkh/0.lkh1.tour" ... done
* 3912: Cost = 0_3782001, Time = 6.62 sec. 
Writing OUTPUT_TOUR_FILE: "baseline_results/cvrp_lkh/Vrp-Set-Li-n1201/Vrp-Set-Li-n1201-lkh/0.lkh1.tour" ... done
* 3913: Cost = 0_3782000, Time = 6.62 sec. 
Writing OUTPUT_TOUR_FILE: "baseline_results/cvrp_lkh/Vrp-Set-Li-n1201/Vrp-Set-Li-n1201-lkh/0.lkh1.tour" ... done
Population:
  1: 0_3782000
Run 1: Cost = 0_3782000, Time = 15.24 sec. 

Successes/Runs = 0/1 
Cost.min = 3782000, Cost.avg = 3782000.00, Cost.max = 3782000
Gap.min = 0.0000%, Gap.avg = 0.0000%, Gap.max = 0.0000%
Penalty.min = 0, Penalty.avg = 0.00, Penalty.max = 0
Trials.min = 10000, Trials.avg = 10000.0, Trials.max = 10000
Time.min = 15.24 sec., Time.avg = 15.24 sec., Time.max = 15.24 sec.
Time.total = 16.56 sec.
  Size.min = 91, Size.max = 137, Penalty = 0
  Cost.min = 321117, Cost.max = 482449, Cost.sum = 3782000
Best CVRP solution:
  Cost = 0_3782000

