experiment/data/lkh-res/Vrp-Set-Li-n1201/Vrp-Set-Li-n1201-lkh/0.lkh1.tour
NAME : 0.3782000.tour
COMMENT : Length = 3782000
COMMENT : Found by LKH-3 [Keld Helsgaun] Tue Apr  9 02:24:55 2024
TYPE : TOUR
DIMENSION : 1210
TOUR_SECTION
1
7
47
46
86
87
127
126
125
165
166
206
246
286
326
366
406
446
486
526
566
606
646
686
726
766
806
846
886
926
966
1006
1046
1086
1126
1166
1165
1125
1085
1045
1005
965
925
885
845
805
765
725
685
645
605
565
525
485
445
405
365
325
285
245
205
204
244
284
324
364
404
444
484
524
564
604
644
684
724
764
804
844
884
924
964
1004
1044
1084
1124
1164
1163
1123
1083
1043
1003
963
923
883
843
803
763
723
683
643
603
563
523
483
443
403
363
323
283
243
203
163
164
124
84
85
45
5
6
1207
41
2
3
4
44
43
83
123
122
161
201
162
202
242
282
322
362
402
442
482
522
562
602
642
682
722
762
802
842
882
922
962
1002
1042
1082
1122
1162
1201
1161
1121
1081
1041
1001
961
921
881
841
801
761
721
681
641
601
561
521
481
441
401
361
321
281
241
240
280
320
360
400
440
480
520
560
600
640
680
720
760
800
840
880
920
960
1000
1040
1080
1120
1160
1200
1199
1159
1119
1079
1039
999
959
919
879
839
799
759
719
679
639
599
559
519
479
439
399
359
319
279
239
199
200
160
120
121
82
42
81
80
40
1208
36
35
34
33
73
74
114
113
153
152
192
191
190
230
270
310
350
390
430
470
510
550
590
630
670
710
750
790
830
870
910
950
990
1030
1070
1110
1150
1190
1191
1151
1111
1071
1031
991
951
911
871
831
791
751
711
671
631
591
551
511
471
431
391
351
311
271
231
232
272
312
352
392
432
472
512
552
592
632
672
712
752
792
832
872
912
952
992
1032
1072
1112
1152
1192
1193
1153
1113
1073
1033
993
953
913
873
833
793
753
713
673
633
593
553
513
473
433
393
353
313
273
274
234
233
193
194
154
155
156
116
115
75
76
77
37
1206
20
60
59
99
139
138
137
136
176
177
178
218
258
298
338
378
418
458
498
538
578
618
658
698
738
778
818
858
898
938
978
1018
1058
1098
1138
1178
1177
1137
1097
1057
1017
977
937
897
857
817
777
737
697
657
617
577
537
497
457
417
377
337
297
257
217
216
256
296
336
376
416
456
496
536
576
616
656
696
736
776
816
856
896
936
976
1016
1056
1096
1136
1176
1175
1135
1095
1055
1015
975
935
895
855
815
775
735
695
655
615
575
535
495
455
415
375
335
295
255
215
175
135
95
96
97
98
58
18
19
1209
11
51
50
49
89
129
169
170
210
250
290
330
370
410
450
490
530
570
610
650
690
730
770
810
850
890
930
970
1010
1050
1090
1130
1170
1169
1129
1089
1049
1009
969
929
889
849
809
769
729
689
649
609
569
529
489
449
409
369
329
289
249
209
208
248
288
328
368
408
448
488
528
568
608
648
688
728
768
808
848
888
928
968
1008
1048
1088
1128
1168
1167
1127
1087
1047
1007
967
927
887
847
807
767
727
687
647
607
567
527
487
447
407
367
327
287
247
207
167
168
128
88
48
8
9
10
1203
25
24
64
63
62
102
103
104
144
143
142
182
222
262
302
342
382
422
462
502
542
582
622
662
702
742
782
822
862
902
942
982
1022
1062
1102
1142
1182
1181
1141
1101
1061
1021
981
941
901
861
821
781
741
701
661
621
581
541
501
461
421
381
341
301
261
221
220
260
300
340
380
420
460
500
540
580
620
660
700
740
780
820
860
900
940
980
1020
1060
1100
1140
1180
1179
1139
1099
1059
1019
979
939
899
859
819
779
739
699
659
619
579
539
499
459
419
379
339
299
259
219
179
180
181
141
140
100
101
61
21
22
23
1205
38
78
118
117
157
197
196
195
235
275
315
314
354
394
434
474
514
554
594
634
674
714
754
794
834
874
914
954
994
1034
1074
1114
1154
1194
1195
1155
1115
1075
1035
995
955
915
875
835
795
755
715
675
635
595
555
515
596
556
516
476
436
475
435
395
355
396
356
316
276
236
237
277
317
357
397
437
477
517
557
597
637
677
717
757
797
636
676
716
756
796
836
876
916
956
996
1036
1076
1116
1156
1196
837
877
917
957
997
1037
1077
1117
1157
1197
1198
1158
1118
1078
1038
998
958
918
878
838
798
758
718
678
638
598
558
518
478
438
398
358
318
278
238
198
158
159
119
79
39
1204
17
57
56
55
54
53
93
94
134
133
132
172
173
174
214
254
294
334
374
414
454
494
534
574
614
654
694
734
774
814
854
894
934
974
1014
1054
1094
1134
1174
1173
1133
1093
1053
1013
973
933
893
853
813
773
733
693
653
613
573
533
493
453
413
373
333
293
253
213
212
252
292
332
372
412
452
492
532
572
612
652
692
732
772
812
852
892
932
972
1012
1052
1092
1132
1172
1171
1131
1091
1051
1011
971
931
891
851
811
771
731
691
651
611
571
531
491
451
411
371
331
291
251
211
171
131
130
90
91
92
52
12
13
14
15
16
1210
26
66
65
105
145
185
184
183
223
263
303
343
383
423
463
503
543
583
623
663
703
743
783
823
863
903
943
983
1023
1063
1103
1143
1183
1184
1144
1104
1064
1024
984
944
904
864
824
784
744
704
664
624
584
544
504
464
424
384
344
304
264
224
225
265
305
345
385
425
465
505
545
585
625
665
705
745
785
825
865
905
945
985
1025
1065
1105
1145
1185
1186
1146
1106
1066
1026
986
946
906
866
826
786
746
706
666
626
586
546
506
466
426
386
346
387
347
307
306
266
226
186
146
106
107
67
68
69
29
28
27
1202
30
70
110
109
108
148
147
187
188
228
227
267
268
308
348
388
428
468
427
467
507
547
587
508
548
588
628
668
708
748
788
627
667
707
747
787
827
867
907
947
987
1027
1067
1107
1147
1187
828
868
908
948
988
1028
1068
1108
1148
1188
1189
1149
1109
1069
1029
989
949
909
869
829
789
749
709
669
629
589
549
509
469
429
389
349
309
269
229
189
149
150
151
111
112
72
71
31
32
-1
EOF
